p cnf 170 190
50 0
-50 51 0
-50 56 0
-51 52 53 0
-52 1 0
-52 2 0
-53 -3 0
-53 54 0
-54 4 55 0
-55 5 0
-55 -3 0
-56 57 0
-56 68 0
-57 6 58 0
-58 -7 59 0
-59 8 60 0
-60 61 0
-60 65 0
-61 62 63 0
-62 9 0
-62 -10 0
-63 64 0
-63 8 0
-64 7 10 0
-65 66 0
-65 67 0
-66 -11 12 0
-67 13 11 0
-68 69 0
-68 78 0
-69 70 75 0
-70 14 0
-70 71 0
-71 72 0
-71 73 0
-72 9 0
-72 -13 0
-73 -11 74 0
-74 -13 -15 0
-75 76 0
-75 -6 0
-76 11 0
-76 77 0
-77 14 0
-77 13 0
-78 79 0
-78 85 0
-79 6 80 0
-80 13 81 0
-81 82 83 0
-82 14 0
-82 11 0
-83 -6 84 0
-84 -12 -16 0
-85 86 0
-85 99 0
-86 -17 87 0
-87 88 96 0
-88 18 0
-88 89 0
-89 -19 0
-89 90 0
-90 -20 0
-90 91 0
-91 -18 0
-91 92 0
-92 19 0
-92 93 0
-93 -21 0
-93 94 0
-94 -17 95 0
-95 -17 0
-95 -22 0
-96 97 19 0
-97 -17 0
-97 98 0
-98 -19 0
-98 20 0
-99 23 0
-99 100 0
-100 101 0
-100 112 0
-101 102 108 0
-102 103 0
-102 104 0
-103 -24 0
-103 25 0
-104 105 0
-104 106 0
-105 26 27 0
-106 27 0
-106 107 0
-107 26 27 0
-108 109 111 0
-109 110 0
-109 28 0
-110 -27 26 0
-111 25 0
-111 28 0
-112 113 0
-112 123 0
-113 29 114 0
-114 115 116 0
-115 25 0
-115 26 0
-116 117 121 0
-117 30 118 0
-118 26 0
-118 119 0
-119 31 0
-119 120 0
-120 32 0
-120 33 0
-121 31 122 0
-122 32 -30 0
-123 34 0
-123 124 0
-124 125 0
-124 136 0
-125 126 0
-125 132 0
-126 127 129 0
-127 -35 128 0
-128 -35 0
-128 36 0
-129 -11 0
-129 130 0
-130 3 131 0
-131 -15 0
-131 -7 0
-132 133 0
-132 135 0
-133 3 134 0
-134 6 0
-134 37 0
-135 13 3 0
-136 137 0
-136 150 0
-137 38 138 0
-138 -38 0
-138 139 0
-139 140 0
-139 142 0
-140 38 141 0
-141 39 0
-141 -38 0
-142 40 0
-142 143 0
-143 144 0
-143 146 0
-144 -39 145 0
-145 -41 -42 0
-146 147 0
-146 148 0
-147 42 -43 0
-148 -42 0
-148 149 0
-149 -38 -43 0
-150 151 0
-150 157 0
-151 38 152 0
-152 153 46 0
-153 -43 0
-153 154 0
-154 -44 155 0
-155 -42 0
-155 156 0
-156 45 0
-156 -44 0
-157 158 0
-157 162 0
-158 159 160 0
-159 47 0
-159 -48 0
-160 -2 161 0
-161 1 -49 0
-162 163 0
-162 166 0
-163 164 0
-163 165 0
-164 7 13 0
-165 14 9 0
-166 167 0
-166 168 0
-167 -15 -14 0
-168 169 170 0
-169 7 0
-169 -15 0
-170 14 0
-170 -15 0
